n_res = 3;
rcap = [8, 116, 106];
rtype = [1, 2, 2];
n_tasks = 16;
modes = [ {1, 2, 3}, {4, 5, 6}, {7, 8, 9}, {10, 11, 12}, {13, 14, 15}, {16, 17, 18}, {19, 20, 21}, {22, 23, 24}, {25, 26, 27}, {28, 29, 30}, {31, 32, 33}, {34, 35, 36}, {37, 38, 39}, {40, 41, 42}, {43, 44, 45}, {46, 47, 48} ];
succ = [ {5, 7}, {4, 6, 16}, {4, 5, 6}, {12, 13}, {16}, {12, 14}, {8, 10, 12}, {9, 13}, {11, 14, 15}, {11, 13}, {16}, {15}, {14, 15}, {}, {}, {} ];
n_opt = 48;
dur = [4, 4, 4, 1, 1, 8, 3, 7, 10, 1, 4, 10, 4, 7, 8, 1, 4, 10, 4, 4, 9, 5, 7, 8, 5, 5, 7, 1, 7, 9, 2, 6, 7, 2, 3, 10, 4, 7, 10, 3, 4, 5, 3, 4, 9, 2, 8, 8];
rreq = [|  3,  5,  0,  1,  0,  1,  5,  0,  4,  3,  0,  0,  0,  9,  6,  0,  0,  0,  1,  0,  0,  9,  8,  0,  5,  0,  0,  0,  0,  8,  0,  0,  3,  5,  0,  2,  6,  0,  0,  7,  7,  0,  0,  9,  9,  7,  2,  0
        |  5,  6,  4,  7,  8,  7,  7,  7,  7,  9,  5,  4,  6,  5,  5,  6,  6,  4,  4,  4,  2,  6,  5,  2, 10,  8,  7,  8,  6,  4,  9,  6,  2,  9,  9,  8,  6,  5,  4, 10,  5,  5,  3,  3,  3,  9,  7,  7
        |  6,  4,  9,  8, 10,  7,  6,  5,  2,  4,  4,  3,  8,  6,  6,  3,  2,  2,  6,  7,  4,  5,  5,  5,  8,  9,  8,  8,  7,  5,  5,  5,  3,  8,  7,  7,  6,  6,  5,  4,  4,  4,  9,  5,  3,  5,  1,  2 |];
